data/CVRPLIB/Vrp-Set-XML100/instances/XML100_3316_06.vrp
NAME : XML100_3316_06
COMMENT : Generated by Queiroga, Sadykov, Uchoa, and Vidal (2021)
TYPE : CVRP
DIMENSION : 101
EDGE_WEIGHT_TYPE : EUC_2D
CAPACITY : 44
NODE_COORD_SECTION
1    0    0   
2    785  837 
3    864  992 
4    582  103 
5    313  518 
6    511  826 
7    405  836 
8    406  830 
9    209  18  
10   340  346 
11   522  868 
12   379  430 
13   847  831 
14   8    572 
15   604  153 
16   802  977 
17   834  231 
18   656  139 
19   643  227 
20   355  8   
21   871  619 
22   523  832 
23   949  438 
24   623  126 
25   373  386 
26   517  813 
27   485  856 
28   558  673 
29   338  700 
30   503  193 
31   744  934 
32   479  95  
33   285  116 
34   808  169 
35   314  420 
36   153  361 
37   602  79  
38   489  827 
39   773  365 
40   213  233 
41   137  804 
42   567  135 
43   730  498 
44   142  209 
45   658  748 
46   811  359 
47   87   737 
48   755  283 
49   110  334 
50   580  543 
51   337  881 
52   179  339 
53   434  955 
54   717  850 
55   752  844 
56   971  42  
57   792  443 
58   34   651 
59   313  620 
60   595  803 
61   473  820 
62   624  243 
63   611  386 
64   866  557 
65   558  119 
66   187  419 
67   127  559 
68   641  132 
69   52   476 
70   702  152 
71   567  196 
72   190  460 
73   571  814 
74   496  137 
75   144  382 
76   431  908 
77   519  749 
78   944  951 
79   739  295 
80   641  11  
81   709  320 
82   447  587 
83   117  279 
84   865  799 
85   608  666 
86   183  395 
87   861  640 
88   649  233 
89   845  318 
90   866  717 
91   961  774 
92   901  152 
93   984  534 
94   741  956 
95   933  936 
96   580  128 
97   713  289 
98   453  243 
99   237  935 
100  604  141 
101  776  283 
DEMAND_SECTION
1    0   
2    1   
3    1   
4    1   
5    1   
6    1   
7    1   
8    1   
9    1   
10   1   
11   1   
12   1   
13   1   
14   1   
15   1   
16   1   
17   1   
18   1   
19   1   
20   1   
21   1   
22   1   
23   1   
24   1   
25   1   
26   1   
27   1   
28   1   
29   1   
30   1   
31   1   
32   1   
33   1   
34   1   
35   1   
36   1   
37   1   
38   1   
39   1   
40   1   
41   1   
42   1   
43   1   
44   1   
45   1   
46   1   
47   1   
48   1   
49   1   
50   1   
51   1   
52   1   
53   1   
54   1   
55   1   
56   1   
57   1   
58   1   
59   1   
60   1   
61   1   
62   1   
63   1   
64   1   
65   1   
66   1   
67   1   
68   1   
69   1   
70   1   
71   1   
72   1   
73   1   
74   1   
75   1   
76   1   
77   1   
78   1   
79   1   
80   1   
81   1   
82   1   
83   1   
84   1   
85   1   
86   1   
87   1   
88   1   
89   1   
90   1   
91   1   
92   1   
93   1   
94   1   
95   1   
96   1   
97   1   
98   1   
99   1   
100  1   
101  1   
DEPOT_SECTION
1
-1
EOF
