data/CVRPLIB/Vrp-Set-XML100/solutions/XML100_3316_06.sol
Route #1: 8 19 79 36 3 64 41 95 14 99 23 67 17 69 33 55 91 16 100 47 78 80 96 87 18 61 70 29 73 31 32
Route #2: 43 51 34 4 58 28 7 6 75 52 50 98 40 46 57 13 68 66 71 65 85 74 35 48 82
Route #3: 97 62 42 56 38 45 88 22 92 63 20 86 89 90 83 12 94 77 2 15 93 30 1 54 53 44 59 72 21 10 26 60 37 5 25 76 27 84 49 81 11 24 9 39
Cost 9381
